p cnf 125 114
-1 3 9 10 12 13 14 15 16 20 21 23 24 25 26 27 28 30 31 32 33 34 37 38 41 42 45 55 57 58 59 60 61 63 64 66 68 78 82 85 115 116 117 0 
-2 29 117 0 
-3 1 9 10 12 13 14 15 16 20 21 23 24 25 26 27 28 30 31 32 33 34 37 38 41 42 45 55 57 58 59 60 61 63 64 66 68 78 82 85 115 116 117 0 
-4 5 7 19 74 117 0 
-5 4 7 19 74 117 0 
-6 17 18 54 65 67 84 92 117 0 
-7 4 5 19 74 117 0 
-8 117 0 
-9 1 3 10 12 13 14 15 16 20 21 23 24 25 26 27 28 30 31 32 33 34 37 38 41 42 45 55 57 58 59 60 61 63 64 66 68 78 82 85 115 116 117 0 
-10 1 3 9 12 13 14 15 16 20 21 23 24 25 26 27 28 30 31 32 33 34 37 38 41 42 45 55 57 58 59 60 61 63 64 66 68 78 82 85 115 116 117 0 
-11 40 117 0 
-12 1 3 9 10 13 14 15 16 20 21 23 24 25 26 27 28 30 31 32 33 34 37 38 41 42 45 55 57 58 59 60 61 63 64 66 68 78 82 85 115 116 117 0 
-13 1 3 9 10 12 14 15 16 20 21 23 24 25 26 27 28 30 31 32 33 34 37 38 41 42 45 55 57 58 59 60 61 63 64 66 68 78 82 85 115 116 117 0 
-14 1 3 9 10 12 13 15 16 20 21 23 24 25 26 27 28 30 31 32 33 34 37 38 41 42 45 55 57 58 59 60 61 63 64 66 68 78 82 85 115 116 117 0 
-15 1 3 9 10 12 13 14 16 20 21 23 24 25 26 27 28 30 31 32 33 34 37 38 41 42 45 55 57 58 59 60 61 63 64 66 68 78 82 85 115 116 117 0 
-16 1 3 9 10 12 13 14 15 20 21 23 24 25 26 27 28 30 31 32 33 34 37 38 41 42 45 55 57 58 59 60 61 63 64 66 68 78 82 85 115 116 117 0 
-17 6 18 54 65 67 84 92 117 0 
-18 6 17 54 65 67 84 92 117 0 
-19 4 5 7 74 117 0 
-20 1 3 9 10 12 13 14 15 16 21 23 24 25 26 27 28 30 31 32 33 34 37 38 41 42 45 55 57 58 59 60 61 63 64 66 68 78 82 85 115 116 117 0 
-21 1 3 9 10 12 13 14 15 16 20 23 24 25 26 27 28 30 31 32 33 34 37 38 41 42 45 55 57 58 59 60 61 63 64 66 68 78 82 85 115 116 117 0 
-22 35 36 39 43 44 76 77 79 80 83 86 93 94 95 96 97 117 0 
-23 1 3 9 10 12 13 14 15 16 20 21 24 25 26 27 28 30 31 32 33 34 37 38 41 42 45 55 57 58 59 60 61 63 64 66 68 78 82 85 115 116 117 0 
-24 1 3 9 10 12 13 14 15 16 20 21 23 25 26 27 28 30 31 32 33 34 37 38 41 42 45 55 57 58 59 60 61 63 64 66 68 78 82 85 115 116 117 0 
-25 1 3 9 10 12 13 14 15 16 20 21 23 24 26 27 28 30 31 32 33 34 37 38 41 42 45 55 57 58 59 60 61 63 64 66 68 78 82 85 115 116 117 0 
-26 1 3 9 10 12 13 14 15 16 20 21 23 24 25 27 28 30 31 32 33 34 37 38 41 42 45 55 57 58 59 60 61 63 64 66 68 78 82 85 115 116 117 0 
-27 1 3 9 10 12 13 14 15 16 20 21 23 24 25 26 28 30 31 32 33 34 37 38 41 42 45 55 57 58 59 60 61 63 64 66 68 78 82 85 115 116 117 0 
-28 1 3 9 10 12 13 14 15 16 20 21 23 24 25 26 27 30 31 32 33 34 37 38 41 42 45 55 57 58 59 60 61 63 64 66 68 78 82 85 115 116 117 0 
-29 2 117 0 
-30 1 3 9 10 12 13 14 15 16 20 21 23 24 25 26 27 28 31 32 33 34 37 38 41 42 45 55 57 58 59 60 61 63 64 66 68 78 82 85 115 116 117 0 
-31 1 3 9 10 12 13 14 15 16 20 21 23 24 25 26 27 28 30 32 33 34 37 38 41 42 45 55 57 58 59 60 61 63 64 66 68 78 82 85 115 116 117 0 
-32 1 3 9 10 12 13 14 15 16 20 21 23 24 25 26 27 28 30 31 33 34 37 38 41 42 45 55 57 58 59 60 61 63 64 66 68 78 82 85 115 116 117 0 
-33 1 3 9 10 12 13 14 15 16 20 21 23 24 25 26 27 28 30 31 32 34 37 38 41 42 45 55 57 58 59 60 61 63 64 66 68 78 82 85 115 116 117 0 
-34 1 3 9 10 12 13 14 15 16 20 21 23 24 25 26 27 28 30 31 32 33 37 38 41 42 45 55 57 58 59 60 61 63 64 66 68 78 82 85 115 116 117 0 
-35 22 36 39 43 44 76 77 79 80 83 86 93 94 95 96 97 117 0 
-36 22 35 39 43 44 76 77 79 80 83 86 93 94 95 96 97 117 0 
-37 1 3 9 10 12 13 14 15 16 20 21 23 24 25 26 27 28 30 31 32 33 34 38 41 42 45 55 57 58 59 60 61 63 64 66 68 78 82 85 115 116 117 0 
-38 1 3 9 10 12 13 14 15 16 20 21 23 24 25 26 27 28 30 31 32 33 34 37 41 42 45 55 57 58 59 60 61 63 64 66 68 78 82 85 115 116 117 0 
-39 22 35 36 43 44 76 77 79 80 83 86 93 94 95 96 97 117 0 
-40 11 117 0 
-41 1 3 9 10 12 13 14 15 16 20 21 23 24 25 26 27 28 30 31 32 33 34 37 38 42 45 55 57 58 59 60 61 63 64 66 68 78 82 85 115 116 117 0 
-42 1 3 9 10 12 13 14 15 16 20 21 23 24 25 26 27 28 30 31 32 33 34 37 38 41 45 55 57 58 59 60 61 63 64 66 68 78 82 85 115 116 117 0 
-43 22 35 36 39 44 76 77 79 80 83 86 93 94 95 96 97 117 0 
-44 22 35 36 39 43 76 77 79 80 83 86 93 94 95 96 97 117 0 
-45 1 3 9 10 12 13 14 15 16 20 21 23 24 25 26 27 28 30 31 32 33 34 37 38 41 42 55 57 58 59 60 61 63 64 66 68 78 82 85 115 116 117 0 
-46 117 0 
-47 -48 117 0 
-49 117 0 
-50 117 0 
-51 75 105 107 117 0 
-52 118 0 
-52 119 0 
-53 117 0 
-52 117 0 
-52 120 0 
-54 6 17 18 65 67 84 92 117 0 
-55 1 3 9 10 12 13 14 15 16 20 21 23 24 25 26 27 28 30 31 32 33 34 37 38 41 42 45 57 58 59 60 61 63 64 66 68 78 82 85 115 116 117 0 
-56 117 0 
-57 1 3 9 10 12 13 14 15 16 20 21 23 24 25 26 27 28 30 31 32 33 34 37 38 41 42 45 55 58 59 60 61 63 64 66 68 78 82 85 115 116 117 0 
-58 1 3 9 10 12 13 14 15 16 20 21 23 24 25 26 27 28 30 31 32 33 34 37 38 41 42 45 55 57 59 60 61 63 64 66 68 78 82 85 115 116 117 0 
-59 1 3 9 10 12 13 14 15 16 20 21 23 24 25 26 27 28 30 31 32 33 34 37 38 41 42 45 55 57 58 60 61 63 64 66 68 78 82 85 115 116 117 0 
-60 1 3 9 10 12 13 14 15 16 20 21 23 24 25 26 27 28 30 31 32 33 34 37 38 41 42 45 55 57 58 59 61 63 64 66 68 78 82 85 115 116 117 0 
-61 1 3 9 10 12 13 14 15 16 20 21 23 24 25 26 27 28 30 31 32 33 34 37 38 41 42 45 55 57 58 59 60 63 64 66 68 78 82 85 115 116 117 0 
-62 117 0 
-63 1 3 9 10 12 13 14 15 16 20 21 23 24 25 26 27 28 30 31 32 33 34 37 38 41 42 45 55 57 58 59 60 61 64 66 68 78 82 85 115 116 117 0 
-64 1 3 9 10 12 13 14 15 16 20 21 23 24 25 26 27 28 30 31 32 33 34 37 38 41 42 45 55 57 58 59 60 61 63 66 68 78 82 85 115 116 117 0 
-65 6 17 18 54 67 84 92 117 0 
-66 1 3 9 10 12 13 14 15 16 20 21 23 24 25 26 27 28 30 31 32 33 34 37 38 41 42 45 55 57 58 59 60 61 63 64 68 78 82 85 115 116 117 0 
-67 6 17 18 54 65 84 92 117 0 
-68 1 3 9 10 12 13 14 15 16 20 21 23 24 25 26 27 28 30 31 32 33 34 37 38 41 42 45 55 57 58 59 60 61 63 64 66 78 82 85 115 116 117 0 
-69 -48 117 0 
-70 109 -71 112 -72 -73 117 0 
-74 4 5 7 19 117 0 
-49 -75 51 105 107 117 0 
-73 117 0 
-76 22 35 36 39 43 44 77 79 80 83 86 93 94 95 96 97 117 0 
-77 22 35 36 39 43 44 76 79 80 83 86 93 94 95 96 97 117 0 
-78 1 3 9 10 12 13 14 15 16 20 21 23 24 25 26 27 28 30 31 32 33 34 37 38 41 42 45 55 57 58 59 60 61 63 64 66 68 82 85 115 116 117 0 
-79 22 35 36 39 43 44 76 77 80 83 86 93 94 95 96 97 117 0 
-80 22 35 36 39 43 44 76 77 79 83 86 93 94 95 96 97 117 0 
-81 117 0 
-75 51 105 107 117 0 
-82 1 3 9 10 12 13 14 15 16 20 21 23 24 25 26 27 28 30 31 32 33 34 37 38 41 42 45 55 57 58 59 60 61 63 64 66 68 78 85 115 116 117 0 
-83 22 35 36 39 43 44 76 77 79 80 86 93 94 95 96 97 117 0 
-84 6 17 18 54 65 67 92 117 0 
-85 1 3 9 10 12 13 14 15 16 20 21 23 24 25 26 27 28 30 31 32 33 34 37 38 41 42 45 55 57 58 59 60 61 63 64 66 68 78 82 115 116 117 0 
-86 22 35 36 39 43 44 76 77 79 80 83 93 94 95 96 97 117 0 
-17 6 18 54 65 67 84 92 -87 99 117 0 
-88 100 -89 117 0 
-70 109 -90 -91 117 0 
-92 6 17 18 54 65 67 84 117 0 
-93 22 35 36 39 43 44 76 77 79 80 83 86 94 95 96 97 117 0 
-94 22 35 36 39 43 44 76 77 79 80 83 86 93 95 96 97 117 0 
-95 22 35 36 39 43 44 76 77 79 80 83 86 93 94 96 97 117 0 
-96 22 35 36 39 43 44 76 77 79 80 83 86 93 94 95 97 117 0 
-97 22 35 36 39 43 44 76 77 79 80 83 86 93 94 95 96 117 0 
-98 -73 117 0 
-99 87 -72 117 0 
-100 88 -101 117 0 
-52 -102 121 0 
-103 -104 121 0 
-51 75 105 107 -104 122 -111 0 
-105 51 75 107 -106 123 0 
-8 -98 -107 51 75 105 -108 122 -111 0 
-109 70 124 -62 0 
-110 117 0 
-111 117 0 
-52 121 0 
-50 123 0 
-52 122 -111 0 
-112 71 -113 125 0 
-114 117 0 
-115 1 3 9 10 12 13 14 15 16 20 21 23 24 25 26 27 28 30 31 32 33 34 37 38 41 42 45 55 57 58 59 60 61 63 64 66 68 78 82 85 116 117 0 
-116 1 3 9 10 12 13 14 15 16 20 21 23 24 25 26 27 28 30 31 32 33 34 37 38 41 42 45 55 57 58 59 60 61 63 64 66 68 78 82 85 115 117 0 
